NAME: cuum120.tsp
TYPE: TSP
COMMENT: User-generated TSP file
DIMENSION: 120
EDGE_WEIGHT_TYPE: EUC_2D
NODE_COORD_SECTION
1 114.0 33.0
2 98.0 88.0
3 98.0 113.0
4 49.0 12.0
5 55.0 48.0
6 74.0 15.0
7 57.0 107.0
8 36.0 78.0
9 15.0 40.0
10 62.0 87.0
11 81.0 93.0
12 9.0 102.0
13 83.0 44.0
14 114.0 61.0
15 69.0 12.0
16 95.0 1.0
17 98.0 95.0
18 107.0 110.0
19 58.0 109.0
20 22.0 73.0
21 87.0 7.0
22 30.0 79.0
23 11.0 1.0
24 92.0 37.0
25 58.0 107.0
26 82.0 30.0
27 48.0 83.0
28 21.0 117.0
29 72.0 31.0
30 10.0 41.0
31 7.0 18.0
32 50.0 71.0
33 13.0 81.0
34 68.0 73.0
35 96.0 50.0
36 70.0 30.0
37 120.0 32.0
38 55.0 39.0
39 109.0 72.0
40 44.0 81.0
41 58.0 12.0
42 10.0 16.0
43 54.0 46.0
44 67.0 12.0
45 26.0 105.0
46 86.0 37.0
47 32.0 61.0
48 73.0 55.0
49 80.0 63.0
50 72.0 117.0
51 27.0 90.0
52 24.0 102.0
53 73.0 118.0
54 5.0 98.0
55 67.0 116.0
56 69.0 10.0
57 83.0 118.0
58 102.0 53.0
59 19.0 41.0
60 38.0 20.0
61 15.0 32.0
62 66.0 89.0
63 117.0 13.0
64 117.0 16.0
65 51.0 61.0
66 60.0 115.0
67 83.0 105.0
68 18.0 89.0
69 28.0 72.0
70 109.0 68.0
71 115.0 77.0
72 92.0 111.0
73 8.0 90.0
74 4.0 88.0
75 99.0 51.0
76 112.0 96.0
77 48.0 2.0
78 77.0 109.0
79 104.0 91.0
80 76.0 41.0
81 44.0 14.0
82 20.0 84.0
83 21.0 44.0
84 8.0 31.0
85 23.0 116.0
86 90.0 90.0
87 22.0 21.0
88 55.0 95.0
89 43.0 17.0
90 55.0 69.0
91 86.0 86.0
92 115.0 69.0
93 12.0 4.0
94 28.0 17.0
95 72.0 11.0
96 77.0 20.0
97 4.0 42.0
98 6.0 97.0
99 84.0 19.0
100 28.0 91.0
101 111.0 77.0
102 37.0 7.0
103 104.0 75.0
104 55.0 119.0
105 26.0 95.0
106 6.0 73.0
107 3.0 105.0
108 68.0 105.0
109 34.0 83.0
110 97.0 23.0
111 65.0 72.0
112 109.0 13.0
113 37.0 15.0
114 7.0 33.0
115 22.0 81.0
116 67.0 66.0
117 82.0 117.0
118 115.0 44.0
119 41.0 35.0
120 61.0 69.0
EOF





